SimulationType                   MonteCarlo
NumberOfCycles                   1000
NumberOfInitializationCycles     0
NumberOfEquilibrationCycles      0
PrintEvery                       5
RestartFile yes

RandomSeed 1

Charge                           Ewald
CutOff                           12.0
CutOffCoulomb                    12.0
Forcefield                       Local
EwaldPrecision                   1e-6

Framework 0
FrameworkName IRMOF-1
UseChargesFromCIFFile yes
UnitCells 4 2 2
HeliumVoidFraction 1.0
ExternalTemperature 298
ExternalPressure 50000000

Component 0 MoleculeName                   methane
            MoleculeDefinition             TraPPE
            TranslationProbability         1.0
            ReinsertionProbability         1.0
            SwapProbability                1.0
            CreateNumberOfMolecules        0
